NAME: inst7.atsp
TYPE: ATSP
DIMENSION: 10
EDGE_WEIGHT_TYPE: EXPLICIT
EDGE_WEIGHT_FORMAT: FULL_MATRIX
EDGE_WEIGHT_SECTION:
0 47 96 64 73 22 10 5 66 21
40 0 93 92 94 32 50 47 77 70
58 92 0 21 59 26 78 86 90 17
38 48 86 0 20 35 9 51 72 94
41 59 27 67 0 46 26 96 58 4
79 69 88 29 90 0 83 28 86 47
49 71 64 74 41 91 0 30 72 66
48 12 83 11 72 52 11 0 16 78
11 22 8 62 84 35 82 66 0 83
26 82 18 57 64 50 13 38 54 0
EOF